(declare-const v0 Bool)
(declare-const v1 Bool)
(declare-const v2 Bool)
(declare-const v3 Bool)
(declare-const v4 Bool)
(assert (edge v0 v0))
(assert (edge true (or v1 v3)))
(assert (edge (or v0 v1 v3) true))
(assert (edge (not v0) true))
(assert (edge v2 true))
(assert (not (edge (or v3 v4) (or v4 (not v0) (not v1)))))